Route 1: 0 31 14 17 72 19 75 0
Route 2: 0 29 88 47 82 99 63 5 0
Route 3: 0 1 70 43 27 37 49 77 8 80 98 100 0
Route 4: 0 56 53 28 89 7 16 71 0
Route 5: 0 68 52 32 97 90 22 0
Route 6: 0 67 3 26 6 33 59 61 62 85 76 0
Route 7: 0 64 87 13 73 45 93 96 51 46 79 0
Route 8: 0 41 95 78 12 50 11 20 83 0
Route 9: 0 55 15 92 39 18 36 34 42 23 4 0
Route 10: 0 57 9 69 54 25 74 35 86 2 91 0
Route 11: 0 84 48 40 24 44 65 81 60 58 0
Route 12: 0 21 94 10 30 38 66 0
